\ENCODING=ISO-8859-1
\Problem name: IloCplex

Maximize
 obj: - 0.357575757575758 v46 - v35 - 0.0848484848484849 v9
      - 0.212121212121212 v43 + 999.690909090909 v26 + 999.921212121212 v41
      + 1000 f3745 + 999.721212121212 v37 - 0.406060606060606 v45 + 1000 f3746
      + 6 f365 - 0.224242424242424 v36 + f366 + f367 + f3615 + f3632 + f3616
      + f3613 + f3627 + f368 + f3649 + f3540 + 1000 f3512 + f3937
      + 999.921212121212 v39 + 1000 f3537 + 2 f2231 - 0.23030303030303 v22
      + f3534 + 4 f3926 + 1000 f3518 - 0.248484848484848 v18 + 2 f2229
      + 1000 f3541 + f233 - 0.109090909090909 v23 + f3528 + f2037
      + 999.921212121212 v20 + f182 + 4 f2026 + f181 + f1838 + f180
      + 1000 f3520 + f2344 + f937 + f1028 - 0.103030303030303 v10 + f4137
      + f1142 - 0.521212121212121 v11 + f3519 + f939 + f3531 + f920 + f1812
      + 1000 f3510 + f941 + 4 f4126 + f3543 + 2 f1130 + 1000 f3511 + 1000 f3539
      + 2 f2225 + f234 + 2 f3544 + f3536 + 1000 f2419 - 0.321212121212121 v24
      + f3521 + f2431 + 1000 f3514 + 1000 f2422 + 1000 f3523 + f2415
      + 1000 f3517 + 2 f3533 + 1000 f3524 + 1000 f359
Subject To
 c1:   v49 <= 0
 c2:   v48 <= 0
 c3:   v46 <= 1
 c4:   v46 >= 1
 c5:   v44 <= 0
 c6:   v40 <= 0
 c7:   v12 <= 0
 c8:   v35 <= 0
 c9:   v13 <= 0
 c10:  v21 <= 0
 c11:  v8 <= 0
 c12:  v9 <= 1
 c13:  v9 >= 1
 c14:  v7 <= 0
 c15:  v1 <= 0
 c16:  v29 <= 0
 c17:  v0 <= 0
 c18:  v43 <= 1
 c19:  v43 >= 1
 c20:  v25 <= 0
 c21:  v4 <= 0
 c22:  v2 <= 0
 c23:  v3 <= 0
 c24:  v6 <= 0
 c25:  v17 <= 0
 c26:  v16 <= 0
 c27:  v42 <= 0
 c28:  v5 <= 0
 c29:  v19 <= 0
 c30:  v14 <= 0
 c31:  v47 <= 0
 c32:  v38 <= 0
 c33:  v31 <= 0
 c34:  v26 <= 1
 c35:  v26 >= 1
 c36:  v27 <= 0
 c37:  v33 <= 0
 c38:  v28 <= 0
 c39:  v41 <= 1
 c40:  v41 >= 1
 c41:  v30 <= 0
 c42:  v15 <= 0
 c43:  v32 <= 0
 c44:  v34 <= 0
 c45:  f3745 - v37 + v45 <= 1
 c46:  f3745 + v37 - v45 <= 1
 c47:  v46 - v37 + f3746 <= 1
 c48:  - v46 + v37 + f3746 <= 1
 c49:  v5 + f365 - v36 <= 1
 c50:  - v5 + f365 + v36 <= 1
 c51:  v6 - v36 + f366 <= 1
 c52:  - v6 + v36 + f366 <= 1
 c53:  v7 - v36 + f367 <= 1
 c54:  - v7 + v36 + f367 <= 1
 c55:  v15 - v36 + f3615 <= 1
 c56:  - v15 + v36 + f3615 <= 1
 c57:  v32 - v36 + f3632 <= 1
 c58:  - v32 + v36 + f3632 <= 1
 c59:  v16 - v36 + f3616 <= 1
 c60:  - v16 + v36 + f3616 <= 1
 c61:  v13 - v36 + f3613 <= 1
 c62:  - v13 + v36 + f3613 <= 1
 c63:  v27 - v36 + f3627 <= 1
 c64:  - v27 + v36 + f3627 <= 1
 c65:  v8 - v36 + f368 <= 1
 c66:  - v8 + v36 + f368 <= 1
 c67:  v49 - v36 + f3649 <= 1
 c68:  - v49 + v36 + f3649 <= 1
 c69:  v40 - v35 + f3540 <= 1
 c70:  - v40 + v35 + f3540 <= 1
 c71:  v12 - v35 + f3512 <= 1
 c72:  - v12 + v35 + f3512 <= 1
 c73:  v37 + f3937 - v39 <= 1
 c74:  - v37 + f3937 + v39 <= 1
 c75:  - v35 + v37 + f3537 <= 1
 c76:  v35 - v37 + f3537 <= 1
 c77:  v31 + f2231 - v22 <= 1
 c78:  - v31 + f2231 + v22 <= 1
 c79:  - v35 + v34 + f3534 <= 1
 c80:  v35 - v34 + f3534 <= 1
 c81:  v26 - v39 + f3926 <= 1
 c82:  - v26 + v39 + f3926 <= 1
 c83:  - v35 + f3518 + v18 <= 1
 c84:  v35 + f3518 - v18 <= 1
 c85:  v29 - v22 + f2229 <= 1
 c86:  - v29 + v22 + f2229 <= 1
 c87:  - v35 + v41 + f3541 <= 1
 c88:  v35 - v41 + f3541 <= 1
 c89:  v3 + f233 - v23 <= 1
 c90:  - v3 + f233 + v23 <= 1
 c91:  - v35 + v28 + f3528 <= 1
 c92:  v35 - v28 + f3528 <= 1
 c93:  v37 + f2037 - v20 <= 1
 c94:  - v37 + f2037 + v20 <= 1
 c95:  v2 - v18 + f182 <= 1
 c96:  - v2 + v18 + f182 <= 1
 c97:  v26 - v20 + f2026 <= 1
 c98:  - v26 + v20 + f2026 <= 1
 c99:  v1 - v18 + f181 <= 1
 c100: - v1 + v18 + f181 <= 1
 c101: v38 - v18 + f1838 <= 1
 c102: - v38 + v18 + f1838 <= 1
 c103: v0 - v18 + f180 <= 1
 c104: - v0 + v18 + f180 <= 1
 c105: - v35 + v20 + f3520 <= 1
 c106: v35 - v20 + f3520 <= 1
 c107: v44 - v23 + f2344 <= 1
 c108: - v44 + v23 + f2344 <= 1
 c109: - v9 + v37 + f937 <= 1
 c110: v9 - v37 + f937 <= 1
 c111: v28 + f1028 - v10 <= 1
 c112: - v28 + f1028 + v10 <= 1
 c113: - v41 + v37 + f4137 <= 1
 c114: v41 - v37 + f4137 <= 1
 c115: v42 + f1142 - v11 <= 1
 c116: - v42 + f1142 + v11 <= 1
 c117: - v35 + v19 + f3519 <= 1
 c118: v35 - v19 + f3519 <= 1
 c119: - v9 + v39 + f939 <= 1
 c120: v9 - v39 + f939 <= 1
 c121: - v35 + v31 + f3531 <= 1
 c122: v35 - v31 + f3531 <= 1
 c123: - v9 + v20 + f920 <= 1
 c124: v9 - v20 + f920 <= 1
 c125: v12 - v18 + f1812 <= 1
 c126: - v12 + v18 + f1812 <= 1
 c127: - v35 + v10 + f3510 <= 1
 c128: v35 - v10 + f3510 <= 1
 c129: - v9 + v41 + f941 <= 1
 c130: v9 - v41 + f941 <= 1
 c131: v26 - v41 + f4126 <= 1
 c132: - v26 + v41 + f4126 <= 1
 c133: - v35 + v43 + f3543 <= 1
 c134: v35 - v43 + f3543 <= 1
 c135: v30 - v11 + f1130 <= 1
 c136: - v30 + v11 + f1130 <= 1
 c137: - v35 + v11 + f3511 <= 1
 c138: v35 - v11 + f3511 <= 1
 c139: - v35 + v39 + f3539 <= 1
 c140: v35 - v39 + f3539 <= 1
 c141: v25 - v22 + f2225 <= 1
 c142: - v25 + v22 + f2225 <= 1
 c143: v4 - v23 + f234 <= 1
 c144: - v4 + v23 + f234 <= 1
 c145: v44 - v35 + f3544 <= 1
 c146: - v44 + v35 + f3544 <= 1
 c147: - v35 + v36 + f3536 <= 1
 c148: v35 - v36 + f3536 <= 1
 c149: v19 + f2419 - v24 <= 1
 c150: - v19 + f2419 + v24 <= 1
 c151: - v35 + v21 + f3521 <= 1
 c152: v35 - v21 + f3521 <= 1
 c153: v31 - v24 + f2431 <= 1
 c154: - v31 + v24 + f2431 <= 1
 c155: - v35 + v14 + f3514 <= 1
 c156: v35 - v14 + f3514 <= 1
 c157: v22 - v24 + f2422 <= 1
 c158: - v22 + v24 + f2422 <= 1
 c159: - v35 + v23 + f3523 <= 1
 c160: v35 - v23 + f3523 <= 1
 c161: v15 - v24 + f2415 <= 1
 c162: - v15 + v24 + f2415 <= 1
 c163: - v35 + v17 + f3517 <= 1
 c164: v35 - v17 + f3517 <= 1
 c165: - v35 + v33 + f3533 <= 1
 c166: v35 - v33 + f3533 <= 1
 c167: - v35 + v24 + f3524 <= 1
 c168: v35 - v24 + f3524 <= 1
 c169: - v35 + v9 + f359 <= 1
 c170: v35 - v9 + f359 <= 1
Bounds
 0 <= v49 <= 1
 0 <= v48 <= 1
 0 <= v46 <= 1
 0 <= v44 <= 1
 0 <= v40 <= 1
 0 <= v12 <= 1
 0 <= v35 <= 1
 0 <= v13 <= 1
 0 <= v21 <= 1
 0 <= v8 <= 1
 0 <= v9 <= 1
 0 <= v7 <= 1
 0 <= v1 <= 1
 0 <= v29 <= 1
 0 <= v0 <= 1
 0 <= v43 <= 1
 0 <= v25 <= 1
 0 <= v4 <= 1
 0 <= v2 <= 1
 0 <= v3 <= 1
 0 <= v6 <= 1
 0 <= v17 <= 1
 0 <= v16 <= 1
 0 <= v42 <= 1
 0 <= v5 <= 1
 0 <= v19 <= 1
 0 <= v14 <= 1
 0 <= v47 <= 1
 0 <= v38 <= 1
 0 <= v31 <= 1
 0 <= v26 <= 1
 0 <= v27 <= 1
 0 <= v33 <= 1
 0 <= v28 <= 1
 0 <= v41 <= 1
 0 <= v30 <= 1
 0 <= v15 <= 1
 0 <= v32 <= 1
 0 <= v34 <= 1
 0 <= f3745 <= 1
 0 <= v37 <= 1
 0 <= v45 <= 1
 0 <= f3746 <= 1
 0 <= f365 <= 1
 0 <= v36 <= 1
 0 <= f366 <= 1
 0 <= f367 <= 1
 0 <= f3615 <= 1
 0 <= f3632 <= 1
 0 <= f3616 <= 1
 0 <= f3613 <= 1
 0 <= f3627 <= 1
 0 <= f368 <= 1
 0 <= f3649 <= 1
 0 <= f3540 <= 1
 0 <= f3512 <= 1
 0 <= f3937 <= 1
 0 <= v39 <= 1
 0 <= f3537 <= 1
 0 <= f2231 <= 1
 0 <= v22 <= 1
 0 <= f3534 <= 1
 0 <= f3926 <= 1
 0 <= f3518 <= 1
 0 <= v18 <= 1
 0 <= f2229 <= 1
 0 <= f3541 <= 1
 0 <= f233 <= 1
 0 <= v23 <= 1
 0 <= f3528 <= 1
 0 <= f2037 <= 1
 0 <= v20 <= 1
 0 <= f182 <= 1
 0 <= f2026 <= 1
 0 <= f181 <= 1
 0 <= f1838 <= 1
 0 <= f180 <= 1
 0 <= f3520 <= 1
 0 <= f2344 <= 1
 0 <= f937 <= 1
 0 <= f1028 <= 1
 0 <= v10 <= 1
 0 <= f4137 <= 1
 0 <= f1142 <= 1
 0 <= v11 <= 1
 0 <= f3519 <= 1
 0 <= f939 <= 1
 0 <= f3531 <= 1
 0 <= f920 <= 1
 0 <= f1812 <= 1
 0 <= f3510 <= 1
 0 <= f941 <= 1
 0 <= f4126 <= 1
 0 <= f3543 <= 1
 0 <= f1130 <= 1
 0 <= f3511 <= 1
 0 <= f3539 <= 1
 0 <= f2225 <= 1
 0 <= f234 <= 1
 0 <= f3544 <= 1
 0 <= f3536 <= 1
 0 <= f2419 <= 1
 0 <= v24 <= 1
 0 <= f3521 <= 1
 0 <= f2431 <= 1
 0 <= f3514 <= 1
 0 <= f2422 <= 1
 0 <= f3523 <= 1
 0 <= f2415 <= 1
 0 <= f3517 <= 1
 0 <= f3533 <= 1
 0 <= f3524 <= 1
 0 <= f359 <= 1
End
